data;
set WEIGHTS := x0 x1 x2 x3 x4 x5 x6 x7 x8 x9 x10 x11 x12 x13 x14 x15 x16 x17 x18 x19 x20 x21 x22 x23 x24 x25 x26 x27 x28 x29;
param:  cost :=
  x0  364
  x1  784
  x2  699
  x3  678
  x4  58
  x5  234
  x6  573
  x7  182
  x8  253
  x9  275
  x10  319
  x11  862
  x12  280
  x13  540
  x14  314
  x15  796
  x16  607
  x17  160
  x18  217
  x19  487
  x20  309
  x21  419
  x22  218
  x23  908
  x24  16
  x25  871
  x26  182
  x27  746
  x28  873
  x29  241;
param cap := 7500;